c turning on binary mode checking
c parsing input formula with 259840 variables and 1039929 clauses
c finished parsing, read 2874797 bytes from proof file
c detected empty clause; start verification via backward checking
c 2458 of 1039929 clauses in core                            
c 748 of 113375 lemmas in core using 12120 resolution steps
c 0 RAT lemmas in core; 59 redundant literals in core lemmas
s VERIFIED
c verification time: 1.445 seconds
